/* Different sequence LSDSP problem */
min: 5115.0 + 50.0 u - 1.0 C_1 - 1.0 C_2 - 1.0 C_3 - 1.0 C_4 - 1.0 C_5;

/* Definition of the number of production batches Q */
R1: u = 1 x_1_5_1 + 2 x_1_5_2 + 3 x_1_5_3 + 4 x_1_5_4 + 5 x_1_5_5 + 1 x_2_5_1 + 2 x_2_5_2 + 3 x_2_5_3 + 4 x_2_5_4 + 5 x_2_5_5 + 1 x_3_5_1 + 2 x_3_5_2 + 3 x_3_5_3 + 4 x_3_5_4 + 5 x_3_5_5 + 1 x_4_5_1 + 2 x_4_5_2 + 3 x_4_5_3 + 4 x_4_5_4 + 5 x_4_5_5 + 1 x_5_5_1 + 2 x_5_5_2 + 3 x_5_5_3 + 4 x_5_5_4 + 5 x_5_5_5;

/* THE FIRST JOB SHOULD BE IN THE FIRST BATCH */
R2: x_1_1_1+x_2_1_1+x_3_1_1+x_4_1_1+x_5_1_1>= 1 ; 
R3: x_1_1_2+x_1_1_3+x_1_1_4+x_1_1_5<=0 ; 
R4: x_2_1_2+x_2_1_3+x_2_1_4+x_2_1_5<=0 ; 
R5: x_3_1_2+x_3_1_3+x_3_1_4+x_3_1_5<=0 ; 
R6: x_4_1_2+x_4_1_3+x_4_1_4+x_4_1_5<=0 ; 
R7: x_5_1_2+x_5_1_3+x_5_1_4+x_5_1_5<=0 ; 

/* EACH POSITION HAS ONLY ONE JOB*/
R8:  x_1_1_1 +  x_1_1_2 +  x_1_1_3 +  x_1_1_4 +  x_1_1_5 +  x_2_1_1 +  x_2_1_2 +  x_2_1_3 +  x_2_1_4 +  x_2_1_5 +  x_3_1_1 +  x_3_1_2 +  x_3_1_3 +  x_3_1_4 +  x_3_1_5 +  x_4_1_1 +  x_4_1_2 +  x_4_1_3 +  x_4_1_4 +  x_4_1_5 +  x_5_1_1 +  x_5_1_2 +  x_5_1_3 +  x_5_1_4 +  x_5_1_5 = 1 ; 
 x_1_2_1 +  x_1_2_2 +  x_1_2_3 +  x_1_2_4 +  x_1_2_5 +  x_2_2_1 +  x_2_2_2 +  x_2_2_3 +  x_2_2_4 +  x_2_2_5 +  x_3_2_1 +  x_3_2_2 +  x_3_2_3 +  x_3_2_4 +  x_3_2_5 +  x_4_2_1 +  x_4_2_2 +  x_4_2_3 +  x_4_2_4 +  x_4_2_5 +  x_5_2_1 +  x_5_2_2 +  x_5_2_3 +  x_5_2_4 +  x_5_2_5 = 1 ; 
 x_1_3_1 +  x_1_3_2 +  x_1_3_3 +  x_1_3_4 +  x_1_3_5 +  x_2_3_1 +  x_2_3_2 +  x_2_3_3 +  x_2_3_4 +  x_2_3_5 +  x_3_3_1 +  x_3_3_2 +  x_3_3_3 +  x_3_3_4 +  x_3_3_5 +  x_4_3_1 +  x_4_3_2 +  x_4_3_3 +  x_4_3_4 +  x_4_3_5 +  x_5_3_1 +  x_5_3_2 +  x_5_3_3 +  x_5_3_4 +  x_5_3_5 = 1 ; 
 x_1_4_1 +  x_1_4_2 +  x_1_4_3 +  x_1_4_4 +  x_1_4_5 +  x_2_4_1 +  x_2_4_2 +  x_2_4_3 +  x_2_4_4 +  x_2_4_5 +  x_3_4_1 +  x_3_4_2 +  x_3_4_3 +  x_3_4_4 +  x_3_4_5 +  x_4_4_1 +  x_4_4_2 +  x_4_4_3 +  x_4_4_4 +  x_4_4_5 +  x_5_4_1 +  x_5_4_2 +  x_5_4_3 +  x_5_4_4 +  x_5_4_5 = 1 ; 
 x_1_5_1 +  x_1_5_2 +  x_1_5_3 +  x_1_5_4 +  x_1_5_5 +  x_2_5_1 +  x_2_5_2 +  x_2_5_3 +  x_2_5_4 +  x_2_5_5 +  x_3_5_1 +  x_3_5_2 +  x_3_5_3 +  x_3_5_4 +  x_3_5_5 +  x_4_5_1 +  x_4_5_2 +  x_4_5_3 +  x_4_5_4 +  x_4_5_5 +  x_5_5_1 +  x_5_5_2 +  x_5_5_3 +  x_5_5_4 +  x_5_5_5 = 1 ; 


/* EACH JOB CAN BE SCHEDULED EXACTLY ONCE*/
R9:  x_1_1_1 +  x_1_1_2 +  x_1_1_3 +  x_1_1_4 +  x_1_1_5 +  x_1_2_1 +  x_1_2_2 +  x_1_2_3 +  x_1_2_4 +  x_1_2_5 +  x_1_3_1 +  x_1_3_2 +  x_1_3_3 +  x_1_3_4 +  x_1_3_5 +  x_1_4_1 +  x_1_4_2 +  x_1_4_3 +  x_1_4_4 +  x_1_4_5 +  x_1_5_1 +  x_1_5_2 +  x_1_5_3 +  x_1_5_4 +  x_1_5_5 = 1 ; 
 x_2_1_1 +  x_2_1_2 +  x_2_1_3 +  x_2_1_4 +  x_2_1_5 +  x_2_2_1 +  x_2_2_2 +  x_2_2_3 +  x_2_2_4 +  x_2_2_5 +  x_2_3_1 +  x_2_3_2 +  x_2_3_3 +  x_2_3_4 +  x_2_3_5 +  x_2_4_1 +  x_2_4_2 +  x_2_4_3 +  x_2_4_4 +  x_2_4_5 +  x_2_5_1 +  x_2_5_2 +  x_2_5_3 +  x_2_5_4 +  x_2_5_5 = 1 ; 
 x_3_1_1 +  x_3_1_2 +  x_3_1_3 +  x_3_1_4 +  x_3_1_5 +  x_3_2_1 +  x_3_2_2 +  x_3_2_3 +  x_3_2_4 +  x_3_2_5 +  x_3_3_1 +  x_3_3_2 +  x_3_3_3 +  x_3_3_4 +  x_3_3_5 +  x_3_4_1 +  x_3_4_2 +  x_3_4_3 +  x_3_4_4 +  x_3_4_5 +  x_3_5_1 +  x_3_5_2 +  x_3_5_3 +  x_3_5_4 +  x_3_5_5 = 1 ; 
 x_4_1_1 +  x_4_1_2 +  x_4_1_3 +  x_4_1_4 +  x_4_1_5 +  x_4_2_1 +  x_4_2_2 +  x_4_2_3 +  x_4_2_4 +  x_4_2_5 +  x_4_3_1 +  x_4_3_2 +  x_4_3_3 +  x_4_3_4 +  x_4_3_5 +  x_4_4_1 +  x_4_4_2 +  x_4_4_3 +  x_4_4_4 +  x_4_4_5 +  x_4_5_1 +  x_4_5_2 +  x_4_5_3 +  x_4_5_4 +  x_4_5_5 = 1 ; 
 x_5_1_1 +  x_5_1_2 +  x_5_1_3 +  x_5_1_4 +  x_5_1_5 +  x_5_2_1 +  x_5_2_2 +  x_5_2_3 +  x_5_2_4 +  x_5_2_5 +  x_5_3_1 +  x_5_3_2 +  x_5_3_3 +  x_5_3_4 +  x_5_3_5 +  x_5_4_1 +  x_5_4_2 +  x_5_4_3 +  x_5_4_4 +  x_5_4_5 +  x_5_5_1 +  x_5_5_2 +  x_5_5_3 +  x_5_5_4 +  x_5_5_5 = 1 ; 


/* LIMITATION OF TRANSPORTER CAPACITY*/
R10: 3.0 x_1_1_1 + 3.0 x_1_2_1 + 3.0 x_1_3_1 + 3.0 x_1_4_1 + 3.0 x_1_5_1 + 1.0 x_2_1_1 + 1.0 x_2_2_1 + 1.0 x_2_3_1 + 1.0 x_2_4_1 + 1.0 x_2_5_1 + 5.0 x_3_1_1 + 5.0 x_3_2_1 + 5.0 x_3_3_1 + 5.0 x_3_4_1 + 5.0 x_3_5_1 + 2.0 x_4_1_1 + 2.0 x_4_2_1 + 2.0 x_4_3_1 + 2.0 x_4_4_1 + 2.0 x_4_5_1 + 1.0 x_5_1_1 + 1.0 x_5_2_1 + 1.0 x_5_3_1 + 1.0 x_5_4_1 + 1.0 x_5_5_1 <= 6.0 ;

R11: 3.0 x_1_1_2 + 3.0 x_1_2_2 + 3.0 x_1_3_2 + 3.0 x_1_4_2 + 3.0 x_1_5_2 + 1.0 x_2_1_2 + 1.0 x_2_2_2 + 1.0 x_2_3_2 + 1.0 x_2_4_2 + 1.0 x_2_5_2 + 5.0 x_3_1_2 + 5.0 x_3_2_2 + 5.0 x_3_3_2 + 5.0 x_3_4_2 + 5.0 x_3_5_2 + 2.0 x_4_1_2 + 2.0 x_4_2_2 + 2.0 x_4_3_2 + 2.0 x_4_4_2 + 2.0 x_4_5_2 + 1.0 x_5_1_2 + 1.0 x_5_2_2 + 1.0 x_5_3_2 + 1.0 x_5_4_2 + 1.0 x_5_5_2 <= 6.0 ;

R12: 3.0 x_1_1_3 + 3.0 x_1_2_3 + 3.0 x_1_3_3 + 3.0 x_1_4_3 + 3.0 x_1_5_3 + 1.0 x_2_1_3 + 1.0 x_2_2_3 + 1.0 x_2_3_3 + 1.0 x_2_4_3 + 1.0 x_2_5_3 + 5.0 x_3_1_3 + 5.0 x_3_2_3 + 5.0 x_3_3_3 + 5.0 x_3_4_3 + 5.0 x_3_5_3 + 2.0 x_4_1_3 + 2.0 x_4_2_3 + 2.0 x_4_3_3 + 2.0 x_4_4_3 + 2.0 x_4_5_3 + 1.0 x_5_1_3 + 1.0 x_5_2_3 + 1.0 x_5_3_3 + 1.0 x_5_4_3 + 1.0 x_5_5_3 <= 6.0 ;

R13: 3.0 x_1_1_4 + 3.0 x_1_2_4 + 3.0 x_1_3_4 + 3.0 x_1_4_4 + 3.0 x_1_5_4 + 1.0 x_2_1_4 + 1.0 x_2_2_4 + 1.0 x_2_3_4 + 1.0 x_2_4_4 + 1.0 x_2_5_4 + 5.0 x_3_1_4 + 5.0 x_3_2_4 + 5.0 x_3_3_4 + 5.0 x_3_4_4 + 5.0 x_3_5_4 + 2.0 x_4_1_4 + 2.0 x_4_2_4 + 2.0 x_4_3_4 + 2.0 x_4_4_4 + 2.0 x_4_5_4 + 1.0 x_5_1_4 + 1.0 x_5_2_4 + 1.0 x_5_3_4 + 1.0 x_5_4_4 + 1.0 x_5_5_4 <= 6.0 ;

R14: 3.0 x_1_1_5 + 3.0 x_1_2_5 + 3.0 x_1_3_5 + 3.0 x_1_4_5 + 3.0 x_1_5_5 + 1.0 x_2_1_5 + 1.0 x_2_2_5 + 1.0 x_2_3_5 + 1.0 x_2_4_5 + 1.0 x_2_5_5 + 5.0 x_3_1_5 + 5.0 x_3_2_5 + 5.0 x_3_3_5 + 5.0 x_3_4_5 + 5.0 x_3_5_5 + 2.0 x_4_1_5 + 2.0 x_4_2_5 + 2.0 x_4_3_5 + 2.0 x_4_4_5 + 2.0 x_4_5_5 + 1.0 x_5_1_5 + 1.0 x_5_2_5 + 1.0 x_5_3_5 + 1.0 x_5_4_5 + 1.0 x_5_5_5 <= 6.0 ;

/* DUE DATES CONSTRAINTS */
R15: C_1 <= 1000.0 x_1_1_1+1000.0 x_1_1_2+1000.0 x_1_1_3+1000.0 x_1_1_4+1000.0 x_1_1_5+1010.0 x_2_1_1+1010.0 x_2_1_2+1010.0 x_2_1_3+1010.0 x_2_1_4+1010.0 x_2_1_5+1030.0 x_3_1_1+1030.0 x_3_1_2+1030.0 x_3_1_3+1030.0 x_3_1_4+1030.0 x_3_1_5+1030.0 x_4_1_1+1030.0 x_4_1_2+1030.0 x_4_1_3+1030.0 x_4_1_4+1030.0 x_4_1_5+1045.0 x_5_1_1+1045.0 x_5_1_2+1045.0 x_5_1_3+1045.0 x_5_1_4+1045.0 x_5_1_5 ;
R16: C_2 <= 1000.0 x_1_2_1+1000.0 x_1_2_2+1000.0 x_1_2_3+1000.0 x_1_2_4+1000.0 x_1_2_5+1010.0 x_2_2_1+1010.0 x_2_2_2+1010.0 x_2_2_3+1010.0 x_2_2_4+1010.0 x_2_2_5+1030.0 x_3_2_1+1030.0 x_3_2_2+1030.0 x_3_2_3+1030.0 x_3_2_4+1030.0 x_3_2_5+1030.0 x_4_2_1+1030.0 x_4_2_2+1030.0 x_4_2_3+1030.0 x_4_2_4+1030.0 x_4_2_5+1045.0 x_5_2_1+1045.0 x_5_2_2+1045.0 x_5_2_3+1045.0 x_5_2_4+1045.0 x_5_2_5 ;
R17: C_3 <= 1000.0 x_1_3_1+1000.0 x_1_3_2+1000.0 x_1_3_3+1000.0 x_1_3_4+1000.0 x_1_3_5+1010.0 x_2_3_1+1010.0 x_2_3_2+1010.0 x_2_3_3+1010.0 x_2_3_4+1010.0 x_2_3_5+1030.0 x_3_3_1+1030.0 x_3_3_2+1030.0 x_3_3_3+1030.0 x_3_3_4+1030.0 x_3_3_5+1030.0 x_4_3_1+1030.0 x_4_3_2+1030.0 x_4_3_3+1030.0 x_4_3_4+1030.0 x_4_3_5+1045.0 x_5_3_1+1045.0 x_5_3_2+1045.0 x_5_3_3+1045.0 x_5_3_4+1045.0 x_5_3_5 ;
R18: C_4 <= 1000.0 x_1_4_1+1000.0 x_1_4_2+1000.0 x_1_4_3+1000.0 x_1_4_4+1000.0 x_1_4_5+1010.0 x_2_4_1+1010.0 x_2_4_2+1010.0 x_2_4_3+1010.0 x_2_4_4+1010.0 x_2_4_5+1030.0 x_3_4_1+1030.0 x_3_4_2+1030.0 x_3_4_3+1030.0 x_3_4_4+1030.0 x_3_4_5+1030.0 x_4_4_1+1030.0 x_4_4_2+1030.0 x_4_4_3+1030.0 x_4_4_4+1030.0 x_4_4_5+1045.0 x_5_4_1+1045.0 x_5_4_2+1045.0 x_5_4_3+1045.0 x_5_4_4+1045.0 x_5_4_5 ;
R19: C_5 <= 1000.0 x_1_5_1+1000.0 x_1_5_2+1000.0 x_1_5_3+1000.0 x_1_5_4+1000.0 x_1_5_5+1010.0 x_2_5_1+1010.0 x_2_5_2+1010.0 x_2_5_3+1010.0 x_2_5_4+1010.0 x_2_5_5+1030.0 x_3_5_1+1030.0 x_3_5_2+1030.0 x_3_5_3+1030.0 x_3_5_4+1030.0 x_3_5_5+1030.0 x_4_5_1+1030.0 x_4_5_2+1030.0 x_4_5_3+1030.0 x_4_5_4+1030.0 x_4_5_5+1045.0 x_5_5_1+1045.0 x_5_5_2+1045.0 x_5_5_3+1045.0 x_5_5_4+1045.0 x_5_5_5 ;
/* C_{j+1} - C_j >= 0 */
R20: C_2-C_1>= 0 ;
R21: C_3-C_2>= 0 ;
R22: C_4-C_3>= 0 ;
R23: C_5-C_4>= 0 ;

/* JOB J AND J+1 ARE IN THE SAME BATCHES  */
R24: C_2-C_1<= 20000.0-10000.0 x_1_1_1-10000.0 x_1_2_1-10000.0 x_2_1_1-10000.0 x_2_2_1-10000.0 x_3_1_1-10000.0 x_3_2_1-10000.0 x_4_1_1-10000.0 x_4_2_1-10000.0 x_5_1_1-10000.0 x_5_2_1 ;
R25: C_2-C_1<= 20000.0-10000.0 x_1_1_2-10000.0 x_1_2_2-10000.0 x_2_1_2-10000.0 x_2_2_2-10000.0 x_3_1_2-10000.0 x_3_2_2-10000.0 x_4_1_2-10000.0 x_4_2_2-10000.0 x_5_1_2-10000.0 x_5_2_2 ;
R26: C_2-C_1<= 20000.0-10000.0 x_1_1_3-10000.0 x_1_2_3-10000.0 x_2_1_3-10000.0 x_2_2_3-10000.0 x_3_1_3-10000.0 x_3_2_3-10000.0 x_4_1_3-10000.0 x_4_2_3-10000.0 x_5_1_3-10000.0 x_5_2_3 ;
R27: C_2-C_1<= 20000.0-10000.0 x_1_1_4-10000.0 x_1_2_4-10000.0 x_2_1_4-10000.0 x_2_2_4-10000.0 x_3_1_4-10000.0 x_3_2_4-10000.0 x_4_1_4-10000.0 x_4_2_4-10000.0 x_5_1_4-10000.0 x_5_2_4 ;
R28: C_2-C_1<= 20000.0-10000.0 x_1_1_5-10000.0 x_1_2_5-10000.0 x_2_1_5-10000.0 x_2_2_5-10000.0 x_3_1_5-10000.0 x_3_2_5-10000.0 x_4_1_5-10000.0 x_4_2_5-10000.0 x_5_1_5-10000.0 x_5_2_5 ;
R29: C_3-C_2<= 20000.0-10000.0 x_1_2_1-10000.0 x_1_3_1-10000.0 x_2_2_1-10000.0 x_2_3_1-10000.0 x_3_2_1-10000.0 x_3_3_1-10000.0 x_4_2_1-10000.0 x_4_3_1-10000.0 x_5_2_1-10000.0 x_5_3_1 ;
R30: C_3-C_2<= 20000.0-10000.0 x_1_2_2-10000.0 x_1_3_2-10000.0 x_2_2_2-10000.0 x_2_3_2-10000.0 x_3_2_2-10000.0 x_3_3_2-10000.0 x_4_2_2-10000.0 x_4_3_2-10000.0 x_5_2_2-10000.0 x_5_3_2 ;
R31: C_3-C_2<= 20000.0-10000.0 x_1_2_3-10000.0 x_1_3_3-10000.0 x_2_2_3-10000.0 x_2_3_3-10000.0 x_3_2_3-10000.0 x_3_3_3-10000.0 x_4_2_3-10000.0 x_4_3_3-10000.0 x_5_2_3-10000.0 x_5_3_3 ;
R32: C_3-C_2<= 20000.0-10000.0 x_1_2_4-10000.0 x_1_3_4-10000.0 x_2_2_4-10000.0 x_2_3_4-10000.0 x_3_2_4-10000.0 x_3_3_4-10000.0 x_4_2_4-10000.0 x_4_3_4-10000.0 x_5_2_4-10000.0 x_5_3_4 ;
R33: C_3-C_2<= 20000.0-10000.0 x_1_2_5-10000.0 x_1_3_5-10000.0 x_2_2_5-10000.0 x_2_3_5-10000.0 x_3_2_5-10000.0 x_3_3_5-10000.0 x_4_2_5-10000.0 x_4_3_5-10000.0 x_5_2_5-10000.0 x_5_3_5 ;
R34: C_4-C_3<= 20000.0-10000.0 x_1_3_1-10000.0 x_1_4_1-10000.0 x_2_3_1-10000.0 x_2_4_1-10000.0 x_3_3_1-10000.0 x_3_4_1-10000.0 x_4_3_1-10000.0 x_4_4_1-10000.0 x_5_3_1-10000.0 x_5_4_1 ;
R35: C_4-C_3<= 20000.0-10000.0 x_1_3_2-10000.0 x_1_4_2-10000.0 x_2_3_2-10000.0 x_2_4_2-10000.0 x_3_3_2-10000.0 x_3_4_2-10000.0 x_4_3_2-10000.0 x_4_4_2-10000.0 x_5_3_2-10000.0 x_5_4_2 ;
R36: C_4-C_3<= 20000.0-10000.0 x_1_3_3-10000.0 x_1_4_3-10000.0 x_2_3_3-10000.0 x_2_4_3-10000.0 x_3_3_3-10000.0 x_3_4_3-10000.0 x_4_3_3-10000.0 x_4_4_3-10000.0 x_5_3_3-10000.0 x_5_4_3 ;
R37: C_4-C_3<= 20000.0-10000.0 x_1_3_4-10000.0 x_1_4_4-10000.0 x_2_3_4-10000.0 x_2_4_4-10000.0 x_3_3_4-10000.0 x_3_4_4-10000.0 x_4_3_4-10000.0 x_4_4_4-10000.0 x_5_3_4-10000.0 x_5_4_4 ;
R38: C_4-C_3<= 20000.0-10000.0 x_1_3_5-10000.0 x_1_4_5-10000.0 x_2_3_5-10000.0 x_2_4_5-10000.0 x_3_3_5-10000.0 x_3_4_5-10000.0 x_4_3_5-10000.0 x_4_4_5-10000.0 x_5_3_5-10000.0 x_5_4_5 ;
R39: C_5-C_4<= 20000.0-10000.0 x_1_4_1-10000.0 x_1_5_1-10000.0 x_2_4_1-10000.0 x_2_5_1-10000.0 x_3_4_1-10000.0 x_3_5_1-10000.0 x_4_4_1-10000.0 x_4_5_1-10000.0 x_5_4_1-10000.0 x_5_5_1 ;
R40: C_5-C_4<= 20000.0-10000.0 x_1_4_2-10000.0 x_1_5_2-10000.0 x_2_4_2-10000.0 x_2_5_2-10000.0 x_3_4_2-10000.0 x_3_5_2-10000.0 x_4_4_2-10000.0 x_4_5_2-10000.0 x_5_4_2-10000.0 x_5_5_2 ;
R41: C_5-C_4<= 20000.0-10000.0 x_1_4_3-10000.0 x_1_5_3-10000.0 x_2_4_3-10000.0 x_2_5_3-10000.0 x_3_4_3-10000.0 x_3_5_3-10000.0 x_4_4_3-10000.0 x_4_5_3-10000.0 x_5_4_3-10000.0 x_5_5_3 ;
R42: C_5-C_4<= 20000.0-10000.0 x_1_4_4-10000.0 x_1_5_4-10000.0 x_2_4_4-10000.0 x_2_5_4-10000.0 x_3_4_4-10000.0 x_3_5_4-10000.0 x_4_4_4-10000.0 x_4_5_4-10000.0 x_5_4_4-10000.0 x_5_5_4 ;
R43: C_5-C_4<= 20000.0-10000.0 x_1_4_5-10000.0 x_1_5_5-10000.0 x_2_4_5-10000.0 x_2_5_5-10000.0 x_3_4_5-10000.0 x_3_5_5-10000.0 x_4_4_5-10000.0 x_4_5_5-10000.0 x_5_4_5-10000.0 x_5_5_5 ;

/* JOB J AND J+1 ARE IN THE CONSEQUTIVE BATCHES  */
R44: C_2-C_1>= +50.0 x_1_1_1 + 50.0 x_1_2_2+50.0 x_2_1_1 + 50.0 x_2_2_2+50.0 x_3_1_1 + 50.0 x_3_2_2+50.0 x_4_1_1 + 50.0 x_4_2_2+50.0 x_5_1_1 + 50.0 x_5_2_2-50.0 ;
R45: C_2-C_1>= +50.0 x_1_1_2 + 50.0 x_1_2_3+50.0 x_2_1_2 + 50.0 x_2_2_3+50.0 x_3_1_2 + 50.0 x_3_2_3+50.0 x_4_1_2 + 50.0 x_4_2_3+50.0 x_5_1_2 + 50.0 x_5_2_3-50.0 ;
R46: C_2-C_1>= +50.0 x_1_1_3 + 50.0 x_1_2_4+50.0 x_2_1_3 + 50.0 x_2_2_4+50.0 x_3_1_3 + 50.0 x_3_2_4+50.0 x_4_1_3 + 50.0 x_4_2_4+50.0 x_5_1_3 + 50.0 x_5_2_4-50.0 ;
R47: C_2-C_1>= +50.0 x_1_1_4 + 50.0 x_1_2_5+50.0 x_2_1_4 + 50.0 x_2_2_5+50.0 x_3_1_4 + 50.0 x_3_2_5+50.0 x_4_1_4 + 50.0 x_4_2_5+50.0 x_5_1_4 + 50.0 x_5_2_5-50.0 ;
R48: C_3-C_2>= +50.0 x_1_2_1 + 50.0 x_1_3_2+50.0 x_2_2_1 + 50.0 x_2_3_2+50.0 x_3_2_1 + 50.0 x_3_3_2+50.0 x_4_2_1 + 50.0 x_4_3_2+50.0 x_5_2_1 + 50.0 x_5_3_2-50.0 ;
R49: C_3-C_2>= +50.0 x_1_2_2 + 50.0 x_1_3_3+50.0 x_2_2_2 + 50.0 x_2_3_3+50.0 x_3_2_2 + 50.0 x_3_3_3+50.0 x_4_2_2 + 50.0 x_4_3_3+50.0 x_5_2_2 + 50.0 x_5_3_3-50.0 ;
R50: C_3-C_2>= +50.0 x_1_2_3 + 50.0 x_1_3_4+50.0 x_2_2_3 + 50.0 x_2_3_4+50.0 x_3_2_3 + 50.0 x_3_3_4+50.0 x_4_2_3 + 50.0 x_4_3_4+50.0 x_5_2_3 + 50.0 x_5_3_4-50.0 ;
R51: C_3-C_2>= +50.0 x_1_2_4 + 50.0 x_1_3_5+50.0 x_2_2_4 + 50.0 x_2_3_5+50.0 x_3_2_4 + 50.0 x_3_3_5+50.0 x_4_2_4 + 50.0 x_4_3_5+50.0 x_5_2_4 + 50.0 x_5_3_5-50.0 ;
R52: C_4-C_3>= +50.0 x_1_3_1 + 50.0 x_1_4_2+50.0 x_2_3_1 + 50.0 x_2_4_2+50.0 x_3_3_1 + 50.0 x_3_4_2+50.0 x_4_3_1 + 50.0 x_4_4_2+50.0 x_5_3_1 + 50.0 x_5_4_2-50.0 ;
R53: C_4-C_3>= +50.0 x_1_3_2 + 50.0 x_1_4_3+50.0 x_2_3_2 + 50.0 x_2_4_3+50.0 x_3_3_2 + 50.0 x_3_4_3+50.0 x_4_3_2 + 50.0 x_4_4_3+50.0 x_5_3_2 + 50.0 x_5_4_3-50.0 ;
R54: C_4-C_3>= +50.0 x_1_3_3 + 50.0 x_1_4_4+50.0 x_2_3_3 + 50.0 x_2_4_4+50.0 x_3_3_3 + 50.0 x_3_4_4+50.0 x_4_3_3 + 50.0 x_4_4_4+50.0 x_5_3_3 + 50.0 x_5_4_4-50.0 ;
R55: C_4-C_3>= +50.0 x_1_3_4 + 50.0 x_1_4_5+50.0 x_2_3_4 + 50.0 x_2_4_5+50.0 x_3_3_4 + 50.0 x_3_4_5+50.0 x_4_3_4 + 50.0 x_4_4_5+50.0 x_5_3_4 + 50.0 x_5_4_5-50.0 ;
R56: C_5-C_4>= +50.0 x_1_4_1 + 50.0 x_1_5_2+50.0 x_2_4_1 + 50.0 x_2_5_2+50.0 x_3_4_1 + 50.0 x_3_5_2+50.0 x_4_4_1 + 50.0 x_4_5_2+50.0 x_5_4_1 + 50.0 x_5_5_2-50.0 ;
R57: C_5-C_4>= +50.0 x_1_4_2 + 50.0 x_1_5_3+50.0 x_2_4_2 + 50.0 x_2_5_3+50.0 x_3_4_2 + 50.0 x_3_5_3+50.0 x_4_4_2 + 50.0 x_4_5_3+50.0 x_5_4_2 + 50.0 x_5_5_3-50.0 ;
R58: C_5-C_4>= +50.0 x_1_4_3 + 50.0 x_1_5_4+50.0 x_2_4_3 + 50.0 x_2_5_4+50.0 x_3_4_3 + 50.0 x_3_5_4+50.0 x_4_4_3 + 50.0 x_4_5_4+50.0 x_5_4_3 + 50.0 x_5_5_4-50.0 ;
R59: C_5-C_4>= +50.0 x_1_4_4 + 50.0 x_1_5_5+50.0 x_2_4_4 + 50.0 x_2_5_5+50.0 x_3_4_4 + 50.0 x_3_5_5+50.0 x_4_4_4 + 50.0 x_4_5_5+50.0 x_5_4_4 + 50.0 x_5_5_5-50.0 ;

/* JOB J AND J+1 CAN ONLY BE IN THE SAME OR CONSEQUTIVE BATCHES  */
R60: x_1_1_1 - x_1_2_1 - x_1_2_2+x_2_1_1 - x_2_2_1 - x_2_2_2+x_3_1_1 - x_3_2_1 - x_3_2_2+x_4_1_1 - x_4_2_1 - x_4_2_2+x_5_1_1 - x_5_2_1 - x_5_2_2<= 0 ;
R61: x_1_1_2 - x_1_2_2 - x_1_2_3+x_2_1_2 - x_2_2_2 - x_2_2_3+x_3_1_2 - x_3_2_2 - x_3_2_3+x_4_1_2 - x_4_2_2 - x_4_2_3+x_5_1_2 - x_5_2_2 - x_5_2_3<= 0 ;
R62: x_1_1_3 - x_1_2_3 - x_1_2_4+x_2_1_3 - x_2_2_3 - x_2_2_4+x_3_1_3 - x_3_2_3 - x_3_2_4+x_4_1_3 - x_4_2_3 - x_4_2_4+x_5_1_3 - x_5_2_3 - x_5_2_4<= 0 ;
R63: x_1_1_4 - x_1_2_4 - x_1_2_5+x_2_1_4 - x_2_2_4 - x_2_2_5+x_3_1_4 - x_3_2_4 - x_3_2_5+x_4_1_4 - x_4_2_4 - x_4_2_5+x_5_1_4 - x_5_2_4 - x_5_2_5<= 0 ;
R64: x_1_2_1 - x_1_3_1 - x_1_3_2+x_2_2_1 - x_2_3_1 - x_2_3_2+x_3_2_1 - x_3_3_1 - x_3_3_2+x_4_2_1 - x_4_3_1 - x_4_3_2+x_5_2_1 - x_5_3_1 - x_5_3_2<= 0 ;
R65: x_1_2_2 - x_1_3_2 - x_1_3_3+x_2_2_2 - x_2_3_2 - x_2_3_3+x_3_2_2 - x_3_3_2 - x_3_3_3+x_4_2_2 - x_4_3_2 - x_4_3_3+x_5_2_2 - x_5_3_2 - x_5_3_3<= 0 ;
R66: x_1_2_3 - x_1_3_3 - x_1_3_4+x_2_2_3 - x_2_3_3 - x_2_3_4+x_3_2_3 - x_3_3_3 - x_3_3_4+x_4_2_3 - x_4_3_3 - x_4_3_4+x_5_2_3 - x_5_3_3 - x_5_3_4<= 0 ;
R67: x_1_2_4 - x_1_3_4 - x_1_3_5+x_2_2_4 - x_2_3_4 - x_2_3_5+x_3_2_4 - x_3_3_4 - x_3_3_5+x_4_2_4 - x_4_3_4 - x_4_3_5+x_5_2_4 - x_5_3_4 - x_5_3_5<= 0 ;
R68: x_1_3_1 - x_1_4_1 - x_1_4_2+x_2_3_1 - x_2_4_1 - x_2_4_2+x_3_3_1 - x_3_4_1 - x_3_4_2+x_4_3_1 - x_4_4_1 - x_4_4_2+x_5_3_1 - x_5_4_1 - x_5_4_2<= 0 ;
R69: x_1_3_2 - x_1_4_2 - x_1_4_3+x_2_3_2 - x_2_4_2 - x_2_4_3+x_3_3_2 - x_3_4_2 - x_3_4_3+x_4_3_2 - x_4_4_2 - x_4_4_3+x_5_3_2 - x_5_4_2 - x_5_4_3<= 0 ;
R70: x_1_3_3 - x_1_4_3 - x_1_4_4+x_2_3_3 - x_2_4_3 - x_2_4_4+x_3_3_3 - x_3_4_3 - x_3_4_4+x_4_3_3 - x_4_4_3 - x_4_4_4+x_5_3_3 - x_5_4_3 - x_5_4_4<= 0 ;
R71: x_1_3_4 - x_1_4_4 - x_1_4_5+x_2_3_4 - x_2_4_4 - x_2_4_5+x_3_3_4 - x_3_4_4 - x_3_4_5+x_4_3_4 - x_4_4_4 - x_4_4_5+x_5_3_4 - x_5_4_4 - x_5_4_5<= 0 ;
R72: x_1_4_1 - x_1_5_1 - x_1_5_2+x_2_4_1 - x_2_5_1 - x_2_5_2+x_3_4_1 - x_3_5_1 - x_3_5_2+x_4_4_1 - x_4_5_1 - x_4_5_2+x_5_4_1 - x_5_5_1 - x_5_5_2<= 0 ;
R73: x_1_4_2 - x_1_5_2 - x_1_5_3+x_2_4_2 - x_2_5_2 - x_2_5_3+x_3_4_2 - x_3_5_2 - x_3_5_3+x_4_4_2 - x_4_5_2 - x_4_5_3+x_5_4_2 - x_5_5_2 - x_5_5_3<= 0 ;
R74: x_1_4_3 - x_1_5_3 - x_1_5_4+x_2_4_3 - x_2_5_3 - x_2_5_4+x_3_4_3 - x_3_5_3 - x_3_5_4+x_4_4_3 - x_4_5_3 - x_4_5_4+x_5_4_3 - x_5_5_3 - x_5_5_4<= 0 ;
R75: x_1_4_4 - x_1_5_4 - x_1_5_5+x_2_4_4 - x_2_5_4 - x_2_5_5+x_3_4_4 - x_3_5_4 - x_3_5_5+x_4_4_4 - x_4_5_4 - x_4_5_5+x_5_4_4 - x_5_5_4 - x_5_5_5<= 0 ;

/* C_j>=0 */
R76: C_1>=0;
R77: C_2>=0;
R78: C_3>=0;
R79: C_4>=0;
R80: C_5>=0;

/* Binary variables x_{ijk} */
bin  x_1_1_1, x_1_1_2, x_1_1_3, x_1_1_4, x_1_1_5, x_2_1_1, x_2_1_2, x_2_1_3, x_2_1_4, x_2_1_5, x_3_1_1, x_3_1_2, x_3_1_3, x_3_1_4, x_3_1_5, x_4_1_1, x_4_1_2, x_4_1_3, x_4_1_4, x_4_1_5, x_5_1_1, x_5_1_2, x_5_1_3, x_5_1_4, x_5_1_5;
bin  x_1_2_1, x_1_2_2, x_1_2_3, x_1_2_4, x_1_2_5, x_2_2_1, x_2_2_2, x_2_2_3, x_2_2_4, x_2_2_5, x_3_2_1, x_3_2_2, x_3_2_3, x_3_2_4, x_3_2_5, x_4_2_1, x_4_2_2, x_4_2_3, x_4_2_4, x_4_2_5, x_5_2_1, x_5_2_2, x_5_2_3, x_5_2_4, x_5_2_5;
bin  x_1_3_1, x_1_3_2, x_1_3_3, x_1_3_4, x_1_3_5, x_2_3_1, x_2_3_2, x_2_3_3, x_2_3_4, x_2_3_5, x_3_3_1, x_3_3_2, x_3_3_3, x_3_3_4, x_3_3_5, x_4_3_1, x_4_3_2, x_4_3_3, x_4_3_4, x_4_3_5, x_5_3_1, x_5_3_2, x_5_3_3, x_5_3_4, x_5_3_5;
bin  x_1_4_1, x_1_4_2, x_1_4_3, x_1_4_4, x_1_4_5, x_2_4_1, x_2_4_2, x_2_4_3, x_2_4_4, x_2_4_5, x_3_4_1, x_3_4_2, x_3_4_3, x_3_4_4, x_3_4_5, x_4_4_1, x_4_4_2, x_4_4_3, x_4_4_4, x_4_4_5, x_5_4_1, x_5_4_2, x_5_4_3, x_5_4_4, x_5_4_5;
bin  x_1_5_1, x_1_5_2, x_1_5_3, x_1_5_4, x_1_5_5, x_2_5_1, x_2_5_2, x_2_5_3, x_2_5_4, x_2_5_5, x_3_5_1, x_3_5_2, x_3_5_3, x_3_5_4, x_3_5_5, x_4_5_1, x_4_5_2, x_4_5_3, x_4_5_4, x_4_5_5, x_5_5_1, x_5_5_2, x_5_5_3, x_5_5_4, x_5_5_5;

